NAME : custom-n24-k2-adaptative-sweep
COMMENT : Es un test para comparar sweeping adaptativo activado o no
TYPE : CVRP
DIMENSION : 25
EDGE_WEIGHT_TYPE : EUC_2D 
CAPACITY : 12
NODE_COORD_SECTION 
 1 9 10
 2 21 7
 3 22 8
 4 20 9
 5 21 9
 6 21 10
 7 21 11
 8 22 11
 9 21 12
 10 20 13
 11 21 13
 12 22 13
 13 22 14
 14 4 21
 15 5 20
 16 6 21
 17 6 19
 18 7 19
 19 7 18
 20 7 17
 21 7 16
 22 7 15
 23 7 14
 24 7 13
 25 7 12
DEMAND_SECTION 
1 0 
2 1 
3 1 
4 1 
5 1 
6 1 
7 1 
8 1 
9 1 
10 1 
11 1 
12 1 
13 1 
14 1 
15 1 
16 1 
17 1 
18 1 
19 1 
20 1 
21 1 
22 1 
23 1 
24 1 
25 1 
DEPOT_SECTION 
 1  
 -1  
EOF 
